150 2761
1 4 -1
1 8 1
1 10 1
1 16 1
1 18 1
1 19 1
1 28 -1
1 29 1
1 32 -1
1 34 1
1 37 1
1 42 -1
1 43 -1
1 44 1
1 46 -1
1 49 1
1 60 -1
1 62 1
1 65 -1
1 68 -1
1 87 1
1 95 -1
1 100 -1
1 107 -1
1 110 -1
1 123 1
1 125 1
1 126 1
1 128 1
1 135 -1
1 137 1
1 150 -1
2 3 1
2 7 1
2 9 -1
2 11 -1
2 19 -1
2 24 -1
2 32 1
2 39 -1
2 40 -1
2 41 -1
2 43 -1
2 56 -1
2 67 1
2 81 -1
2 84 1
2 90 -1
2 93 1
2 105 1
2 113 -1
2 125 -1
2 127 -1
2 137 1
2 146 -1
3 6 1
3 13 1
3 14 -1
3 18 1
3 21 1
3 22 -1
3 24 1
3 27 -1
3 33 -1
3 34 -1
3 36 1
3 45 1
3 51 1
3 53 1
3 55 1
3 56 1
3 60 1
3 61 -1
3 77 -1
3 78 -1
3 82 -1
3 89 -1
3 91 -1
3 96 1
3 98 1
3 115 -1
3 119 -1
3 121 1
3 123 -1
3 125 1
3 126 1
3 129 1
3 131 1
3 134 1
4 7 1
4 11 1
4 22 1
4 25 1
4 36 -1
4 38 1
4 42 1
4 44 1
4 46 1
4 48 -1
4 52 -1
4 53 -1
4 58 1
4 61 -1
4 62 1
4 71 1
4 73 -1
4 74 -1
4 76 -1
4 77 1
4 80 1
4 86 1
4 90 1
4 91 -1
4 99 -1
4 100 1
4 102 -1
4 103 1
4 112 -1
4 115 -1
4 120 1
4 122 1
4 140 1
4 148 -1
5 10 -1
5 13 -1
5 18 1
5 20 1
5 27 1
5 29 1
5 32 -1
5 37 1
5 43 -1
5 44 1
5 46 -1
5 48 1
5 50 -1
5 53 -1
5 54 -1
5 56 -1
5 60 1
5 63 1
5 64 1
5 68 -1
5 71 -1
5 72 -1
5 76 -1
5 77 -1
5 83 -1
5 86 1
5 87 1
5 90 -1
5 92 -1
5 94 1
5 95 -1
5 101 1
5 108 1
5 115 1
5 117 -1
5 120 -1
5 126 -1
5 127 1
5 130 -1
5 144 1
6 9 1
6 19 1
6 23 1
6 27 -1
6 28 -1
6 31 1
6 36 1
6 37 -1
6 44 1
6 45 1
6 46 1
6 53 -1
6 59 -1
6 67 1
6 70 1
6 73 -1
6 77 1
6 78 -1
6 79 1
6 80 -1
6 83 1
6 88 -1
6 92 1
6 101 1
6 106 -1
6 110 1
6 111 -1
6 117 -1
6 124 1
6 125 -1
6 139 -1
6 148 -1
6 149 1
6 150 1
7 13 -1
7 14 1
7 22 1
7 36 -1
7 37 -1
7 39 -1
7 43 1
7 48 -1
7 51 -1
7 52 -1
7 65 1
7 66 -1
7 70 1
7 71 1
7 77 -1
7 78 1
7 80 1
7 81 -1
7 89 1
7 91 1
7 101 -1
7 105 -1
7 109 1
7 113 -1
7 114 1
7 115 1
7 117 -1
7 119 -1
7 123 1
7 130 1
7 132 1
7 136 1
7 142 -1
7 146 -1
7 147 -1
7 150 -1
8 10 1
8 22 -1
8 24 1
8 26 -1
8 31 1
8 32 1
8 35 1
8 40 -1
8 43 -1
8 45 1
8 46 1
8 49 -1
8 50 -1
8 56 1
8 57 -1
8 58 1
8 60 -1
8 63 1
8 67 1
8 74 1
8 77 1
8 78 1
8 93 -1
8 102 1
8 103 -1
8 107 1
8 108 1
8 109 -1
8 113 -1
8 116 -1
8 117 -1
8 121 1
8 123 1
8 124 -1
8 127 1
8 128 1
8 132 1
8 135 -1
8 147 -1
8 149 -1
9 11 -1
9 17 1
9 22 1
9 23 1
9 26 -1
9 31 -1
9 33 1
9 34 1
9 36 1
9 38 1
9 41 1
9 42 -1
9 48 1
9 52 -1
9 54 1
9 61 -1
9 63 1
9 66 1
9 67 1
9 68 1
9 71 1
9 73 -1
9 75 -1
9 83 -1
9 87 -1
9 88 1
9 89 -1
9 92 -1
9 93 1
9 96 -1
9 98 1
9 105 1
9 106 1
9 109 -1
9 110 -1
9 113 1
9 124 1
9 126 1
9 128 -1
9 133 -1
9 136 -1
9 137 1
9 146 -1
9 147 1
9 148 -1
10 12 1
10 21 1
10 31 1
10 36 -1
10 50 -1
10 52 -1
10 55 -1
10 56 1
10 67 1
10 69 1
10 71 1
10 74 -1
10 79 -1
10 85 -1
10 86 1
10 91 1
10 93 1
10 94 1
10 105 -1
10 106 -1
10 115 1
10 127 1
10 128 -1
10 130 -1
10 131 1
10 137 -1
10 139 1
10 145 1
10 149 -1
11 12 1
11 14 1
11 15 1
11 19 1
11 22 -1
11 26 1
11 30 1
11 32 1
11 34 1
11 40 1
11 41 1
11 43 -1
11 49 1
11 76 1
11 78 1
11 83 -1
11 84 1
11 85 -1
11 93 1
11 97 -1
11 99 1
11 101 -1
11 103 -1
11 104 -1
11 107 -1
11 112 -1
11 116 1
11 121 1
11 127 1
11 131 -1
11 132 -1
11 147 1
11 148 -1
11 149 1
12 15 1
12 19 1
12 24 1
12 32 -1
12 35 -1
12 36 -1
12 39 1
12 41 -1
12 55 -1
12 57 1
12 63 -1
12 66 1
12 73 1
12 76 -1
12 79 1
12 84 1
12 88 -1
12 91 1
12 94 1
12 95 1
12 102 -1
12 105 -1
12 109 -1
12 116 1
12 117 1
12 118 -1
12 120 -1
12 124 -1
12 132 1
12 134 1
12 149 1
12 150 -1
13 28 1
13 33 1
13 37 -1
13 39 -1
13 41 -1
13 44 -1
13 45 1
13 46 -1
13 47 1
13 55 -1
13 57 -1
13 62 -1
13 67 -1
13 69 -1
13 70 1
13 71 1
13 77 -1
13 78 1
13 80 -1
13 82 -1
13 84 -1
13 93 -1
13 97 -1
13 105 1
13 109 1
13 114 -1
13 116 -1
13 119 -1
13 121 1
13 127 1
13 131 -1
13 135 1
13 137 1
13 142 1
14 16 -1
14 22 -1
14 23 -1
14 25 -1
14 32 1
14 33 -1
14 37 -1
14 38 -1
14 42 -1
14 46 1
14 47 -1
14 48 -1
14 49 -1
14 59 -1
14 60 1
14 63 -1
14 67 1
14 68 1
14 70 1
14 73 -1
14 78 1
14 82 1
14 90 -1
14 93 -1
14 94 -1
14 96 1
14 97 1
14 109 1
14 110 1
14 111 1
14 113 1
14 115 1
14 124 -1
14 125 1
14 127 1
14 131 -1
14 136 1
14 138 1
14 139 -1
14 145 1
14 146 -1
14 149 -1
15 23 -1
15 31 1
15 39 -1
15 41 -1
15 44 -1
15 46 1
15 49 1
15 51 1
15 52 1
15 54 -1
15 55 -1
15 58 1
15 60 1
15 62 -1
15 69 -1
15 71 -1
15 77 1
15 79 1
15 81 1
15 89 -1
15 93 -1
15 102 1
15 105 1
15 113 1
15 131 -1
15 139 1
15 144 -1
15 145 1
16 17 -1
16 19 -1
16 20 -1
16 22 1
16 25 -1
16 32 1
16 35 1
16 41 1
16 46 -1
16 53 -1
16 54 1
16 55 -1
16 56 -1
16 59 -1
16 62 -1
16 66 1
16 73 -1
16 76 -1
16 82 -1
16 84 -1
16 87 1
16 88 -1
16 90 -1
16 95 -1
16 102 -1
16 110 -1
16 113 -1
16 118 -1
16 130 -1
16 134 1
16 137 -1
16 138 -1
16 143 -1
16 145 1
16 149 -1
17 19 1
17 21 1
17 25 1
17 34 1
17 38 -1
17 40 1
17 41 -1
17 42 -1
17 45 -1
17 49 1
17 52 -1
17 53 1
17 59 -1
17 60 1
17 70 -1
17 72 -1
17 73 -1
17 88 -1
17 90 1
17 93 1
17 94 1
17 99 -1
17 115 -1
17 118 1
17 120 -1
17 122 1
17 125 1
17 127 1
17 135 -1
17 138 -1
18 28 1
18 32 -1
18 34 1
18 39 -1
18 60 -1
18 64 1
18 72 -1
18 73 1
18 77 1
18 82 -1
18 83 -1
18 89 -1
18 92 -1
18 94 -1
18 95 1
18 103 -1
18 106 -1
18 111 1
18 112 -1
18 113 1
18 117 -1
18 120 -1
18 130 -1
18 135 -1
19 24 1
19 26 -1
19 30 -1
19 33 1
19 42 -1
19 48 -1
19 50 1
19 54 -1
19 60 -1
19 63 1
19 68 -1
19 72 1
19 79 -1
19 88 1
19 94 1
19 96 -1
19 103 -1
19 107 -1
19 114 -1
19 116 -1
19 131 1
19 133 -1
19 139 -1
19 142 1
19 143 -1
19 144 1
19 146 -1
19 147 -1
20 21 1
20 30 1
20 44 -1
20 52 -1
20 54 -1
20 55 1
20 56 1
20 57 -1
20 59 -1
20 68 -1
20 69 1
20 70 -1
20 74 -1
20 76 -1
20 79 -1
20 82 1
20 84 1
20 87 1
20 90 1
20 91 1
20 92 -1
20 94 -1
20 95 -1
20 98 -1
20 99 -1
20 103 -1
20 108 1
20 130 -1
20 134 1
20 140 1
21 22 -1
21 25 1
21 30 1
21 36 -1
21 37 -1
21 40 1
21 52 -1
21 53 -1
21 66 1
21 69 -1
21 73 1
21 78 -1
21 82 -1
21 88 -1
21 96 -1
21 98 1
21 105 -1
21 106 1
21 111 -1
21 112 1
21 113 1
21 117 -1
21 120 1
21 122 -1
21 123 1
21 128 -1
21 131 -1
21 134 -1
21 138 1
21 143 1
21 150 -1
22 25 1
22 31 1
22 35 1
22 36 1
22 39 1
22 44 -1
22 48 1
22 52 -1
22 53 -1
22 56 1
22 57 -1
22 61 1
22 65 -1
22 66 -1
22 70 1
22 74 -1
22 75 -1
22 78 1
22 85 -1
22 86 1
22 88 -1
22 93 1
22 94 -1
22 98 1
22 102 1
22 105 1
22 109 1
22 114 1
22 119 -1
22 120 -1
22 124 -1
22 126 -1
22 128 -1
22 129 -1
22 130 -1
22 133 1
22 136 -1
22 139 1
23 25 1
23 27 1
23 33 -1
23 34 -1
23 37 1
23 39 1
23 42 1
23 44 1
23 45 1
23 48 1
23 57 -1
23 58 1
23 63 1
23 70 1
23 72 1
23 75 -1
23 76 1
23 79 1
23 83 -1
23 92 -1
23 95 -1
23 96 -1
23 100 -1
23 113 1
23 114 -1
23 119 1
23 125 1
23 133 -1
23 134 1
23 139 -1
23 142 -1
23 144 1
23 145 1
23 147 -1
24 35 1
24 40 1
24 42 1
24 52 -1
24 55 1
24 60 1
24 62 1
24 68 1
24 69 1
24 71 1
24 73 -1
24 80 -1
24 91 -1
24 93 -1
24 108 1
24 114 1
24 117 -1
24 119 -1
24 127 -1
24 131 -1
24 133 1
24 135 -1
24 136 1
24 137 1
24 140 -1
24 144 -1
24 150 -1
25 27 -1
25 28 1
25 31 -1
25 40 1
25 42 1
25 49 -1
25 50 1
25 56 -1
25 57 1
25 59 -1
25 66 -1
25 76 1
25 77 1
25 78 1
25 84 -1
25 87 1
25 90 1
25 91 1
25 92 -1
25 95 1
25 96 -1
25 97 1
25 101 1
25 102 -1
25 105 1
25 109 -1
25 114 1
25 119 1
25 123 -1
25 126 -1
25 127 -1
25 130 1
25 137 -1
25 138 -1
25 139 1
25 140 1
25 143 -1
26 31 -1
26 38 -1
26 42 -1
26 44 -1
26 45 -1
26 46 1
26 48 1
26 51 -1
26 57 1
26 62 1
26 64 1
26 66 -1
26 72 -1
26 73 1
26 74 -1
26 75 1
26 80 1
26 84 -1
26 86 -1
26 88 -1
26 94 1
26 100 -1
26 106 -1
26 108 1
26 112 -1
26 114 1
26 118 -1
26 121 -1
26 122 -1
26 127 1
26 131 1
26 132 1
26 139 -1
26 145 1
26 147 -1
26 148 1
27 37 1
27 43 1
27 45 1
27 51 1
27 52 -1
27 60 -1
27 66 -1
27 70 1
27 76 1
27 77 1
27 95 -1
27 96 1
27 97 -1
27 109 -1
27 110 -1
27 113 1
27 114 1
27 115 -1
27 116 1
27 126 -1
27 129 1
27 133 -1
27 134 1
27 135 -1
27 137 -1
27 138 1
27 140 -1
27 142 1
27 146 -1
27 149 -1
28 29 1
28 33 -1
28 34 1
28 37 -1
28 44 -1
28 50 1
28 52 1
28 62 -1
28 66 -1
28 69 -1
28 71 -1
28 77 1
28 86 -1
28 92 -1
28 93 1
28 94 -1
28 99 -1
28 110 1
28 119 1
28 122 -1
28 125 -1
28 126 -1
28 131 -1
28 133 1
28 136 -1
28 141 1
28 145 1
28 149 -1
29 32 1
29 34 1
29 37 -1
29 43 -1
29 45 1
29 50 1
29 56 1
29 70 1
29 75 -1
29 79 1
29 81 -1
29 90 -1
29 96 1
29 102 1
29 112 1
29 130 1
29 135 1
29 137 -1
29 138 -1
29 143 -1
29 144 1
30 33 -1
30 39 -1
30 42 1
30 44 -1
30 45 1
30 46 -1
30 47 -1
30 49 -1
30 50 -1
30 52 1
30 55 -1
30 60 1
30 61 -1
30 62 -1
30 66 -1
30 69 1
30 73 1
30 79 1
30 81 1
30 86 1
30 87 -1
30 88 1
30 98 -1
30 104 1
30 111 -1
30 118 -1
30 119 1
30 121 1
30 128 -1
30 131 -1
30 132 -1
30 133 1
30 135 1
30 138 1
30 141 -1
30 147 -1
31 33 1
31 35 1
31 37 1
31 38 -1
31 39 -1
31 47 1
31 48 -1
31 52 -1
31 54 1
31 58 -1
31 59 1
31 61 1
31 67 1
31 70 1
31 74 -1
31 76 -1
31 78 -1
31 80 -1
31 81 1
31 84 1
31 86 1
31 87 1
31 94 -1
31 98 -1
31 105 -1
31 110 -1
31 113 -1
31 118 -1
31 122 1
31 125 1
31 126 1
31 129 -1
31 133 -1
31 144 1
31 146 1
31 148 -1
31 150 -1
32 45 1
32 51 -1
32 53 -1
32 54 -1
32 59 1
32 63 1
32 66 1
32 68 1
32 71 1
32 74 1
32 81 1
32 85 -1
32 88 -1
32 89 -1
32 94 1
32 98 1
32 101 -1
32 107 -1
32 111 1
32 118 -1
32 120 1
32 128 1
32 137 -1
32 140 1
32 149 -1
33 38 -1
33 39 -1
33 42 -1
33 46 -1
33 48 1
33 50 1
33 51 1
33 56 1
33 57 1
33 58 1
33 66 -1
33 74 1
33 75 1
33 76 1
33 79 -1
33 89 1
33 94 -1
33 96 1
33 101 -1
33 102 -1
33 108 -1
33 113 -1
33 115 1
33 116 1
33 118 1
33 122 -1
33 124 -1
33 128 1
33 129 -1
33 133 1
33 145 -1
33 146 -1
33 149 -1
34 35 -1
34 36 1
34 39 -1
34 43 -1
34 50 1
34 51 -1
34 54 -1
34 55 1
34 56 1
34 60 -1
34 66 -1
34 73 -1
34 75 -1
34 84 -1
34 85 1
34 86 -1
34 91 -1
34 95 1
34 96 1
34 100 1
34 101 -1
34 104 1
34 107 -1
34 109 1
34 110 -1
34 115 -1
34 126 -1
34 127 1
34 128 1
34 131 -1
34 135 -1
34 140 1
34 144 1
34 145 -1
34 146 -1
34 148 1
35 37 1
35 40 -1
35 41 1
35 43 1
35 49 1
35 59 -1
35 60 1
35 62 1
35 71 -1
35 72 1
35 76 -1
35 79 -1
35 80 1
35 83 -1
35 90 1
35 95 -1
35 101 1
35 102 -1
35 103 1
35 104 -1
35 111 1
35 115 -1
35 116 -1
35 123 1
35 127 1
35 131 -1
35 134 -1
35 138 1
35 143 -1
35 145 -1
35 150 1
36 37 1
36 43 -1
36 47 1
36 49 1
36 52 1
36 54 1
36 59 -1
36 60 1
36 61 1
36 67 -1
36 71 1
36 72 1
36 73 -1
36 74 1
36 76 1
36 78 1
36 88 1
36 90 1
36 97 -1
36 105 1
36 107 1
36 112 1
36 115 -1
36 118 1
36 134 -1
36 138 1
36 142 -1
36 144 -1
36 146 -1
36 148 1
37 55 -1
37 64 -1
37 65 -1
37 66 1
37 73 1
37 78 -1
37 79 1
37 83 -1
37 85 1
37 87 1
37 88 -1
37 89 -1
37 93 -1
37 95 1
37 97 1
37 98 -1
37 102 -1
37 103 1
37 105 1
37 106 -1
37 110 1
37 118 -1
37 119 1
37 120 -1
37 123 -1
37 126 -1
37 132 1
37 138 1
37 144 1
38 39 1
38 44 1
38 48 1
38 49 -1
38 60 -1
38 63 1
38 65 1
38 70 -1
38 76 1
38 77 1
38 78 -1
38 81 1
38 84 -1
38 85 1
38 86 1
38 89 -1
38 97 -1
38 101 1
38 106 -1
38 107 -1
38 109 -1
38 111 1
38 114 1
38 118 -1
38 120 1
38 122 1
38 123 1
38 125 -1
38 135 -1
38 138 1
38 139 -1
38 144 1
38 146 1
38 148 -1
39 42 -1
39 46 1
39 47 -1
39 49 -1
39 50 1
39 58 1
39 62 -1
39 66 -1
39 69 1
39 70 -1
39 87 1
39 116 1
39 121 -1
39 127 -1
39 137 1
39 138 -1
39 145 1
40 42 -1
40 44 -1
40 46 -1
40 47 -1
40 51 1
40 55 -1
40 58 1
40 68 1
40 73 -1
40 74 -1
40 78 -1
40 89 -1
40 103 1
40 104 -1
40 106 1
40 117 -1
40 122 1
40 124 -1
40 125 -1
40 131 -1
40 134 -1
40 135 -1
40 150 1
41 48 1
41 50 -1
41 51 -1
41 52 -1
41 62 1
41 68 1
41 69 1
41 71 -1
41 80 1
41 87 -1
41 89 -1
41 91 -1
41 92 1
41 95 -1
41 98 -1
41 105 -1
41 109 -1
41 112 -1
41 114 -1
41 115 -1
41 122 1
41 123 -1
41 124 1
41 128 1
41 130 1
41 132 -1
41 137 -1
41 138 1
41 144 -1
41 145 1
41 147 1
42 46 -1
42 57 -1
42 58 -1
42 61 1
42 68 -1
42 72 -1
42 79 -1
42 84 1
42 85 1
42 88 -1
42 89 -1
42 91 -1
42 93 -1
42 97 -1
42 98 1
42 102 1
42 103 1
42 105 -1
42 107 1
42 112 1
42 115 -1
42 117 1
42 121 1
42 123 -1
42 128 -1
42 129 -1
42 138 1
42 141 1
43 54 1
43 57 -1
43 62 1
43 69 -1
43 76 -1
43 82 1
43 85 -1
43 86 -1
43 96 1
43 100 1
43 101 1
43 102 1
43 104 -1
43 105 -1
43 106 -1
43 117 -1
43 119 1
43 120 1
43 121 -1
43 124 1
43 126 1
43 127 -1
43 140 1
43 143 1
43 147 1
43 150 1
44 53 1
44 54 -1
44 57 -1
44 60 -1
44 61 1
44 62 -1
44 70 1
44 72 1
44 73 -1
44 77 -1
44 78 -1
44 79 -1
44 80 -1
44 81 1
44 84 -1
44 89 1
44 94 1
44 95 1
44 105 1
44 108 -1
44 110 1
44 115 1
44 122 1
44 124 1
44 126 1
44 127 1
44 129 -1
44 130 1
44 132 -1
44 138 -1
44 149 1
44 150 -1
45 50 -1
45 53 1
45 58 1
45 66 1
45 68 -1
45 71 1
45 72 -1
45 74 -1
45 76 1
45 86 1
45 89 1
45 97 1
45 110 1
45 114 1
45 121 -1
45 126 1
45 129 1
45 134 -1
45 144 1
45 147 1
46 49 -1
46 74 -1
46 76 -1
46 77 -1
46 78 1
46 82 -1
46 83 1
46 97 1
46 100 1
46 103 -1
46 105 1
46 108 -1
46 113 -1
46 115 -1
46 121 -1
46 122 -1
46 128 1
46 145 1
46 147 -1
46 149 1
47 48 1
47 50 1
47 55 1
47 58 -1
47 63 -1
47 67 -1
47 69 1
47 71 -1
47 77 1
47 82 1
47 83 1
47 85 -1
47 89 -1
47 92 -1
47 94 -1
47 96 -1
47 97 -1
47 98 1
47 99 -1
47 102 1
47 106 -1
47 129 1
47 132 -1
47 133 -1
47 134 -1
47 138 -1
47 143 -1
48 51 1
48 60 1
48 61 -1
48 64 1
48 65 1
48 69 -1
48 80 -1
48 85 -1
48 86 1
48 91 1
48 92 1
48 108 -1
48 114 -1
48 119 -1
48 124 1
48 128 -1
48 132 -1
48 134 -1
48 136 -1
48 149 1
48 150 1
49 51 1
49 52 1
49 54 1
49 56 1
49 64 1
49 73 -1
49 76 -1
49 84 -1
49 89 1
49 98 1
49 101 1
49 104 -1
49 114 -1
49 116 -1
49 121 1
49 123 1
49 137 -1
49 138 1
50 53 -1
50 59 1
50 63 1
50 73 -1
50 78 1
50 79 -1
50 80 -1
50 81 -1
50 82 1
50 86 -1
50 93 -1
50 95 1
50 96 -1
50 98 -1
50 99 1
50 106 -1
50 107 1
50 112 1
50 113 -1
50 114 1
50 122 -1
50 126 -1
50 127 1
50 131 -1
50 136 -1
50 142 -1
50 143 -1
50 147 -1
50 148 -1
51 57 1
51 59 1
51 69 1
51 71 -1
51 75 -1
51 77 -1
51 100 1
51 101 -1
51 102 1
51 103 1
51 109 -1
51 114 1
51 135 -1
51 145 -1
51 146 -1
51 147 1
52 54 -1
52 58 1
52 60 1
52 62 1
52 63 -1
52 64 1
52 65 1
52 71 -1
52 73 -1
52 74 1
52 75 1
52 77 1
52 81 1
52 82 1
52 85 -1
52 87 1
52 91 1
52 93 -1
52 96 1
52 97 1
52 98 1
52 109 1
52 122 -1
52 131 -1
52 132 1
52 146 -1
52 147 -1
52 148 1
53 56 1
53 61 1
53 66 -1
53 67 1
53 69 1
53 72 1
53 78 -1
53 79 1
53 85 -1
53 98 1
53 102 -1
53 105 -1
53 106 1
53 108 -1
53 114 -1
53 115 1
53 116 1
53 119 -1
53 121 1
53 124 1
53 127 1
53 128 1
53 131 -1
53 134 -1
53 149 1
54 56 1
54 58 -1
54 60 1
54 63 -1
54 65 1
54 67 1
54 74 1
54 75 1
54 84 1
54 96 -1
54 101 -1
54 102 -1
54 104 1
54 105 -1
54 112 -1
54 115 1
54 120 1
54 121 1
54 126 1
54 140 -1
54 141 -1
54 144 1
54 145 1
54 146 1
54 147 1
55 56 -1
55 58 -1
55 68 1
55 70 -1
55 75 -1
55 81 1
55 88 -1
55 91 -1
55 92 1
55 94 1
55 98 1
55 102 -1
55 103 1
55 106 1
55 108 1
55 111 1
55 117 1
55 121 1
55 122 -1
55 126 1
55 128 -1
55 130 -1
55 137 1
55 141 -1
55 143 1
55 145 -1
56 57 1
56 65 1
56 68 -1
56 71 1
56 74 -1
56 75 1
56 81 1
56 82 1
56 84 1
56 87 -1
56 98 -1
56 106 1
56 107 1
56 110 -1
56 112 1
56 114 -1
56 115 1
56 123 -1
56 124 1
56 132 1
56 134 1
56 145 1
56 150 -1
57 65 -1
57 67 1
57 68 1
57 80 -1
57 93 1
57 99 1
57 110 -1
57 113 -1
57 127 -1
57 128 -1
57 136 1
57 137 1
57 142 1
57 148 -1
57 150 -1
58 59 1
58 68 -1
58 74 1
58 78 -1
58 80 1
58 83 -1
58 86 -1
58 87 -1
58 94 1
58 96 -1
58 100 -1
58 102 -1
58 103 1
58 119 -1
58 124 -1
58 128 1
58 132 1
58 137 -1
58 141 -1
58 150 1
59 64 1
59 72 -1
59 81 1
59 87 -1
59 91 1
59 92 1
59 99 -1
59 103 1
59 105 1
59 108 1
59 109 -1
59 117 -1
59 118 -1
59 130 1
59 135 -1
59 137 1
59 138 1
59 143 -1
60 64 1
60 71 1
60 75 -1
60 77 1
60 79 1
60 100 1
60 105 1
60 109 1
60 110 -1
60 112 1
60 115 1
60 118 -1
60 134 -1
60 138 -1
60 140 -1
60 145 1
61 71 -1
61 75 1
61 81 -1
61 84 -1
61 87 -1
61 89 1
61 90 1
61 104 -1
61 107 1
61 113 1
61 114 1
61 118 1
61 122 -1
61 126 -1
61 130 1
61 131 1
61 134 1
61 138 -1
62 63 -1
62 68 1
62 70 1
62 76 1
62 78 1
62 88 -1
62 90 -1
62 93 -1
62 96 1
62 97 1
62 98 1
62 99 -1
62 107 1
62 109 1
62 113 1
62 115 -1
62 119 -1
62 129 -1
62 131 -1
62 134 1
62 139 -1
62 145 1
62 149 1
63 69 -1
63 70 1
63 71 -1
63 75 1
63 81 1
63 82 -1
63 84 -1
63 89 -1
63 95 -1
63 110 -1
63 112 1
63 120 -1
63 122 1
63 130 1
63 133 1
63 135 1
63 136 -1
63 140 1
63 145 -1
63 147 -1
63 150 -1
64 68 -1
64 71 -1
64 72 -1
64 73 -1
64 75 1
64 78 -1
64 91 1
64 93 -1
64 96 -1
64 101 -1
64 103 1
64 107 1
64 108 -1
64 111 -1
64 114 -1
64 115 -1
64 118 1
64 119 -1
64 122 -1
64 126 -1
64 133 -1
64 136 -1
64 142 -1
64 145 -1
64 149 -1
65 69 1
65 70 -1
65 79 1
65 81 -1
65 82 1
65 88 -1
65 94 -1
65 96 -1
65 101 1
65 105 -1
65 106 -1
65 109 1
65 111 -1
65 115 1
65 122 -1
65 131 1
65 133 -1
65 134 -1
65 137 -1
65 142 1
65 144 -1
65 145 1
66 69 -1
66 72 1
66 86 1
66 91 1
66 92 1
66 94 -1
66 105 1
66 107 -1
66 108 1
66 112 1
66 114 -1
66 116 1
66 117 1
66 123 -1
66 129 -1
66 130 1
66 131 1
66 132 1
66 143 -1
66 144 1
66 145 1
67 68 -1
67 75 1
67 76 1
67 79 1
67 80 1
67 82 -1
67 88 1
67 89 1
67 91 -1
67 94 -1
67 98 1
67 99 1
67 116 1
67 118 1
67 121 1
67 122 1
67 124 -1
67 129 1
67 132 -1
67 134 -1
67 137 1
67 141 1
67 143 -1
67 144 -1
67 145 1
67 149 1
68 71 1
68 73 1
68 77 1
68 79 1
68 81 1
68 84 -1
68 88 1
68 91 1
68 100 1
68 101 1
68 108 1
68 119 -1
68 125 -1
68 126 -1
68 133 1
68 135 -1
68 138 -1
68 139 1
68 141 -1
68 142 -1
68 144 -1
68 146 -1
69 70 1
69 71 -1
69 75 1
69 79 -1
69 80 1
69 81 -1
69 83 1
69 86 1
69 87 -1
69 100 -1
69 104 -1
69 106 1
69 111 -1
69 114 -1
69 117 1
69 124 -1
69 125 -1
69 126 -1
69 130 1
69 132 -1
69 134 -1
69 135 -1
69 140 1
69 145 -1
70 73 -1
70 78 -1
70 80 -1
70 84 -1
70 87 1
70 92 -1
70 94 -1
70 95 -1
70 96 1
70 99 1
70 101 1
70 103 1
70 104 1
70 111 1
70 112 1
70 116 -1
70 118 1
70 122 -1
70 130 1
70 133 1
70 134 -1
70 138 -1
70 143 -1
70 144 1
70 147 -1
71 73 -1
71 74 1
71 77 -1
71 78 -1
71 80 -1
71 85 1
71 99 1
71 101 -1
71 103 -1
71 106 1
71 113 1
71 115 1
71 117 1
71 118 -1
71 125 -1
71 128 -1
71 130 -1
71 133 -1
71 134 1
71 137 1
71 140 -1
71 143 -1
71 145 -1
71 148 1
72 78 1
72 79 1
72 82 1
72 83 -1
72 85 -1
72 90 1
72 92 -1
72 94 -1
72 106 -1
72 109 1
72 112 -1
72 118 -1
72 125 -1
72 127 1
72 129 -1
72 134 -1
72 137 -1
72 143 -1
72 148 1
73 88 1
73 89 -1
73 91 1
73 96 1
73 99 1
73 100 1
73 101 1
73 109 1
73 111 -1
73 124 1
73 128 1
73 131 1
73 133 1
73 134 1
73 136 -1
73 137 -1
73 141 1
73 142 -1
73 144 -1
73 148 -1
74 75 1
74 78 1
74 83 -1
74 85 1
74 93 1
74 94 1
74 101 1
74 108 1
74 111 1
74 113 1
74 126 1
74 133 -1
74 136 1
74 149 -1
75 76 1
75 86 1
75 87 1
75 94 1
75 99 1
75 101 -1
75 102 1
75 104 1
75 105 1
75 110 1
75 132 -1
75 143 -1
75 144 1
75 145 1
75 146 -1
76 80 1
76 86 -1
76 87 1
76 95 1
76 99 1
76 108 1
76 110 1
76 113 1
76 114 -1
76 118 -1
76 123 1
76 126 1
76 127 -1
76 129 -1
76 141 -1
76 145 -1
76 147 1
76 148 -1
77 84 -1
77 90 -1
77 94 -1
77 96 -1
77 99 1
77 101 1
77 106 1
77 111 -1
77 112 -1
77 113 -1
77 114 -1
77 118 1
77 119 1
77 132 1
77 136 -1
77 143 -1
77 146 1
78 80 1
78 85 -1
78 90 -1
78 92 1
78 97 -1
78 98 -1
78 106 -1
78 108 1
78 109 -1
78 115 -1
78 119 -1
78 120 1
78 122 -1
78 129 -1
78 144 -1
78 147 1
78 150 -1
79 84 -1
79 91 -1
79 95 -1
79 101 1
79 103 -1
79 104 -1
79 108 1
79 110 1
79 113 1
79 115 1
79 116 1
79 123 1
79 129 -1
79 143 -1
79 149 -1
79 150 -1
80 83 -1
80 86 -1
80 92 1
80 95 -1
80 97 1
80 102 1
80 105 -1
80 111 -1
80 113 -1
80 114 -1
80 115 -1
80 118 -1
80 123 1
80 128 -1
80 131 1
80 132 1
80 139 -1
80 140 -1
80 142 1
80 146 1
80 149 -1
81 83 -1
81 84 -1
81 86 1
81 87 -1
81 88 -1
81 93 -1
81 97 -1
81 98 -1
81 105 -1
81 106 -1
81 108 1
81 109 1
81 111 -1
81 118 1
81 119 -1
81 120 -1
81 122 -1
81 123 -1
81 127 1
81 130 -1
81 131 -1
81 134 1
81 140 1
81 144 1
81 149 -1
82 86 1
82 94 1
82 101 1
82 103 1
82 107 -1
82 112 -1
82 117 -1
82 118 1
82 125 -1
82 128 -1
82 130 1
82 137 -1
82 138 1
82 140 1
82 141 -1
82 144 1
82 145 -1
83 87 -1
83 88 1
83 94 -1
83 111 -1
83 113 1
83 116 -1
83 119 1
83 122 1
83 126 1
83 131 -1
83 133 1
83 142 1
83 143 -1
83 145 -1
83 150 1
84 86 -1
84 87 1
84 88 1
84 91 1
84 92 -1
84 95 1
84 100 1
84 101 -1
84 106 -1
84 107 -1
84 109 -1
84 113 1
84 125 1
84 126 -1
84 127 -1
84 128 -1
84 129 -1
84 137 1
84 144 1
84 146 -1
84 148 1
85 87 -1
85 95 -1
85 97 -1
85 99 -1
85 101 1
85 103 -1
85 104 -1
85 106 1
85 110 1
85 111 -1
85 117 1
85 124 -1
85 125 -1
85 128 -1
85 131 -1
85 135 -1
85 146 1
85 148 -1
86 88 1
86 89 -1
86 97 1
86 107 -1
86 108 1
86 110 1
86 133 -1
86 134 -1
86 136 1
86 142 -1
86 147 -1
86 148 -1
87 91 -1
87 102 -1
87 103 -1
87 105 -1
87 109 1
87 113 1
87 114 1
87 116 1
87 119 1
87 121 1
87 130 1
87 134 1
87 137 -1
87 143 -1
87 145 1
88 93 -1
88 95 1
88 102 1
88 103 -1
88 105 -1
88 106 1
88 109 1
88 111 -1
88 113 1
88 120 1
88 123 1
88 124 1
88 126 -1
88 129 1
88 130 -1
88 133 -1
88 138 -1
88 142 1
88 147 -1
89 97 1
89 98 1
89 103 -1
89 105 -1
89 108 1
89 109 1
89 110 1
89 113 1
89 115 1
89 116 1
89 120 1
89 124 1
89 125 1
89 132 -1
89 136 1
89 137 1
89 138 1
90 96 1
90 101 1
90 105 -1
90 110 -1
90 112 1
90 113 -1
90 114 -1
90 119 -1
90 123 1
90 129 -1
90 136 -1
90 144 -1
90 146 -1
91 93 -1
91 103 -1
91 107 -1
91 108 -1
91 111 -1
91 112 -1
91 115 -1
91 125 -1
91 127 1
91 131 -1
91 133 1
92 95 -1
92 98 1
92 100 1
92 107 1
92 109 -1
92 120 -1
92 123 1
92 124 -1
92 128 1
92 132 -1
92 144 -1
92 148 -1
92 149 1
93 94 -1
93 96 1
93 98 1
93 100 1
93 104 1
93 107 1
93 110 -1
93 111 1
93 116 -1
93 122 1
93 135 -1
93 141 -1
93 148 -1
94 97 1
94 105 -1
94 109 1
94 110 -1
94 115 -1
94 116 -1
94 118 1
94 121 1
94 122 1
94 124 1
94 126 1
94 137 1
94 140 1
94 147 -1
95 99 1
95 107 1
95 110 1
95 114 1
95 116 -1
95 118 1
95 119 -1
95 123 -1
95 124 1
95 128 1
95 130 1
95 131 1
95 132 1
95 134 -1
95 135 1
95 144 1
95 145 1
95 148 -1
96 102 1
96 103 1
96 109 -1
96 114 1
96 116 1
96 120 1
96 121 -1
96 129 1
96 131 -1
96 133 -1
96 138 1
96 140 1
96 143 1
96 145 1
96 150 1
97 98 -1
97 102 -1
97 110 -1
97 116 -1
97 124 1
97 128 -1
97 129 -1
97 136 -1
97 145 1
97 147 -1
97 149 -1
98 100 -1
98 102 -1
98 110 -1
98 113 -1
98 116 1
98 118 -1
98 131 1
98 133 1
98 134 1
98 136 -1
98 139 -1
98 140 -1
98 141 -1
98 142 1
98 143 -1
98 145 1
99 104 -1
99 121 -1
99 122 -1
99 126 -1
99 127 -1
99 133 -1
99 136 1
99 139 -1
99 142 -1
100 101 1
100 102 1
100 118 1
100 121 1
100 123 -1
100 124 -1
100 125 -1
100 127 -1
100 131 -1
100 134 -1
100 135 -1
100 140 1
100 141 -1
100 142 1
100 143 -1
100 150 -1
101 102 1
101 103 1
101 106 1
101 111 -1
101 113 -1
101 125 -1
101 128 -1
101 129 -1
101 131 -1
101 142 1
101 147 -1
101 149 1
101 150 -1
102 106 -1
102 109 1
102 110 1
102 111 -1
102 118 1
102 123 1
102 126 1
102 132 1
102 136 1
102 138 -1
102 139 1
102 142 1
102 149 1
103 104 -1
103 105 -1
103 106 -1
103 107 -1
103 109 1
103 110 1
103 118 -1
103 119 -1
103 125 1
103 127 1
103 129 -1
103 131 1
103 133 -1
103 134 1
103 135 -1
103 138 1
103 139 -1
103 140 1
103 145 1
103 149 -1
104 116 1
104 119 1
104 136 -1
104 137 1
104 143 1
104 150 1
105 109 -1
105 121 -1
105 123 1
105 124 1
105 130 1
105 134 -1
105 138 1
105 141 1
105 142 1
105 143 -1
105 146 -1
105 147 1
105 149 -1
106 107 1
106 109 -1
106 111 -1
106 112 -1
106 118 1
106 127 -1
106 129 -1
106 133 1
106 138 -1
106 148 -1
106 150 -1
107 113 1
107 115 1
107 119 -1
107 123 1
107 124 1
107 125 -1
107 136 -1
107 139 -1
107 147 -1
107 150 -1
108 109 1
108 110 1
108 112 -1
108 115 1
108 123 1
108 134 1
108 139 1
108 147 1
108 150 1
109 113 -1
109 115 1
109 124 1
109 125 1
109 127 -1
109 129 -1
109 130 -1
109 133 1
109 139 -1
109 142 1
109 145 -1
109 146 -1
110 111 -1
110 113 1
110 115 -1
110 116 -1
110 121 1
110 125 1
110 131 1
110 138 1
110 139 -1
110 144 -1
111 115 1
111 119 1
111 120 1
111 126 1
111 132 -1
111 136 -1
111 138 -1
111 139 1
111 149 1
112 113 1
112 115 -1
112 116 -1
112 123 1
112 133 -1
112 150 -1
113 116 1
113 117 -1
113 123 1
113 132 1
113 134 1
113 135 -1
113 139 1
113 140 1
113 145 1
113 150 -1
114 121 1
114 122 -1
114 123 1
114 125 -1
114 128 -1
114 133 -1
114 136 -1
114 145 -1
115 118 -1
115 119 -1
115 121 1
115 138 1
115 140 1
115 141 -1
115 150 1
116 117 -1
116 118 -1
116 119 1
116 121 -1
116 126 -1
116 132 1
116 144 -1
116 145 1
116 148 -1
116 149 -1
116 150 -1
117 119 1
117 126 1
117 128 -1
117 130 -1
117 132 -1
117 139 1
117 140 1
117 149 1
118 121 1
118 123 1
118 130 -1
118 131 1
118 140 -1
118 148 -1
119 122 -1
119 127 -1
119 129 1
119 130 1
119 133 -1
119 138 -1
119 142 -1
119 145 1
120 121 -1
120 122 -1
120 134 -1
120 144 -1
120 148 -1
120 150 1
121 122 1
121 125 -1
121 127 -1
121 129 1
121 130 1
121 131 1
121 135 -1
121 136 1
121 137 1
121 142 1
121 144 1
121 149 1
121 150 -1
122 126 1
122 129 -1
122 132 -1
122 133 1
122 137 -1
122 139 1
122 144 1
122 148 -1
123 125 -1
123 128 1
123 131 1
123 141 1
123 144 1
123 146 1
124 126 -1
124 127 1
124 130 1
124 132 -1
124 148 -1
124 149 1
124 150 1
125 131 -1
125 134 1
125 140 1
125 143 -1
125 150 1
126 128 -1
126 129 -1
126 130 1
126 133 1
126 137 -1
126 147 -1
126 149 -1
127 128 1
127 129 -1
127 131 1
127 134 1
127 135 1
127 136 -1
127 144 -1
127 147 -1
128 129 -1
128 130 -1
128 133 -1
128 136 -1
128 139 1
128 141 1
128 144 1
129 131 -1
129 133 1
129 135 -1
129 140 1
129 141 -1
129 142 -1
129 144 -1
130 131 -1
130 136 -1
130 139 -1
130 141 1
130 145 -1
130 147 -1
130 149 -1
131 135 -1
131 140 -1
131 147 -1
132 134 -1
132 138 -1
132 148 -1
133 136 1
133 138 -1
133 144 -1
134 147 -1
135 136 1
135 138 1
135 142 1
135 149 -1
136 137 -1
136 144 1
136 147 1
136 148 1
136 150 1
137 142 -1
137 148 -1
138 139 -1
138 145 1
139 140 1
139 145 -1
139 150 -1
140 141 1
140 143 1
140 145 1
143 149 1
145 146 -1
146 149 1
148 150 -1
